 vasp.5.4.1 24Jun15 (build Jan 27 2018 19:19:34) complex

 executed on           IFC91_ompi date 2018.02.07  22:51:33

 INCAR:
 POTCAR:    PAW_PBE Cl 06Sep2000
 POTCAR:    PAW_PBE Co 02Aug2007
 POTCAR:    PAW_PBE Cl 06Sep2000
   VRHFIN =Cl: s2p5

   TITEL  = PAW_PBE Cl 06Sep2000
   POMASS =   35.453; ZVAL   =    7.000    mass and valenz
   ENMAX  =  262.472; ENMIN  =  196.854 eV

 POTCAR:    PAW_PBE Co 02Aug2007
   VRHFIN =Co: d8 s1

   TITEL  = PAW_PBE Co 02Aug2007
   POMASS =   58.933; ZVAL   =    9.000    mass and valenz
   ENMAX  =  267.968; ENMIN  =  200.976 eV

  PAW_PBE Cl 06Sep2000                  :
  PAW_PBE Co 02Aug2007                  :

 POSCAR: CoCl2_mp-696114_conventional_standard\(0
  positions in direct lattice
 exchange correlation table for  LEXCH =        8
   RHO(1)=    0.500       N(1)  =     2000
   RHO(2)=  100.500       N(2)  =     4000

 ion  position               nearest neighbor table
   1  0.667  0.333  0.000-   3 2.43   3 2.43   3 2.43
   2  0.333  0.667  0.180-   3 2.43   3 2.43   3 2.43
   3  0.000  0.000  0.090-   1 2.43   2 2.43   2 2.43   1 2.43   2 2.43   1 2.43

  LATTYP: Found a hexagonal cell.
 ALAT       =     3.5269000530
 C/A-ratio  =     4.1512091180

  Lattice vectors:

 A1 = (   3.5269000530,   0.0000000000,   0.0000000000)
 A2 = (  -1.7634500265,   3.0543850425,   0.0000000000)
 A3 = (   0.0000000000,   0.0000000000,  14.6408996582)

Analysis of symmetry for initial positions (statically):
 Subroutine PRICEL returns:
 Original cell was already a primitive cell.

 Routine SETGRP: Setting up the symmetry group for a
 hexagonal supercell.

 Subroutine GETGRP returns: Found  4 space group operations
 (whereof  2 operations were pure point group operations)
 out of a pool of 24 trial point group operations.

The static configuration has the point symmetry C_1h.
 The point group associated with its full space group is C_2h.

Analysis of symmetry for dynamics (positions and initial velocities):
 Subroutine PRICEL returns:
 Original cell was already a primitive cell.

 Routine SETGRP: Setting up the symmetry group for a
 hexagonal supercell.

 Subroutine GETGRP returns: Found  4 space group operations
 (whereof  2 operations were pure point group operations)
 out of a pool of 24 trial point group operations.

The dynamic configuration has the point symmetry C_1h.
 The point group associated with its full space group is C_2h.

 KPOINTS: Auto

Automatic generation of k-mesh.
Space group operators:
 irot       det(A)        alpha          n_x          n_y          n_z        tau_x        tau_y        tau_z
    1     1.000000     0.000000     1.000000     0.000000     0.000000     0.000000     0.000000     0.000000
    2    -1.000000   180.000000    -0.500000    -0.866025     0.000000     0.000000     0.000000     0.000000
    3    -1.000000     0.000000     1.000000     0.000000     0.000000     0.000000     0.000000     0.180380
    4     1.000000   180.000000    -0.500000    -0.866025     0.000000     0.000000     0.000000     0.180380

 Subroutine IBZKPT returns following result:

 Found     36 irreducible k-points:

 Following reciprocal coordinates:
            Coordinates               Weight
  0.000000  0.000000  0.000000      1.000000
  0.090909  0.000000  0.000000      4.000000
  0.181818  0.000000  0.000000      4.000000
  0.272727  0.000000  0.000000      4.000000
  0.363636  0.000000  0.000000      4.000000
  0.454545  0.000000  0.000000      4.000000
  0.090909  0.090909  0.000000      2.000000
  0.181818  0.090909  0.000000      4.000000
  0.272727  0.090909  0.000000      4.000000
  0.363636  0.090909  0.000000      4.000000
  0.454545  0.090909  0.000000      4.000000
 -0.454545  0.090909  0.000000      4.000000
 -0.363636  0.090909  0.000000      4.000000
 -0.272727  0.090909  0.000000      4.000000
 -0.181818  0.090909  0.000000      4.000000
 -0.090909  0.090909  0.000000      2.000000
  0.181818  0.181818  0.000000      2.000000
  0.272727  0.181818  0.000000      4.000000
  0.363636  0.181818  0.000000      4.000000
  0.454545  0.181818  0.000000      4.000000
 -0.454545  0.181818  0.000000      4.000000
 -0.363636  0.181818  0.000000      4.000000
 -0.272727  0.181818  0.000000      4.000000
 -0.181818  0.181818  0.000000      2.000000
  0.272727  0.272727  0.000000      2.000000
  0.363636  0.272727  0.000000      4.000000
  0.454545  0.272727  0.000000      4.000000
 -0.454545  0.272727  0.000000      4.000000
 -0.363636  0.272727  0.000000      4.000000
 -0.272727  0.272727  0.000000      2.000000
  0.363636  0.363636  0.000000      2.000000
  0.454545  0.363636  0.000000      4.000000
 -0.454545  0.363636  0.000000      4.000000
 -0.363636  0.363636  0.000000      2.000000
  0.454545  0.454545  0.000000      2.000000
 -0.454545  0.454545  0.000000      2.000000

 Following cartesian coordinates:
            Coordinates               Weight
  0.000000  0.000000  0.000000      1.000000
  0.025776  0.014882  0.000000      4.000000
  0.051552  0.029763  0.000000      4.000000
  0.077328  0.044645  0.000000      4.000000
  0.103104  0.059527  0.000000      4.000000
  0.128880  0.074409  0.000000      4.000000
  0.025776  0.044645  0.000000      2.000000
  0.051552  0.059527  0.000000      4.000000
  0.077328  0.074409  0.000000      4.000000
  0.103104  0.089290  0.000000      4.000000
  0.128880  0.104172  0.000000      4.000000
 -0.128880 -0.044645  0.000000      4.000000
 -0.103104 -0.029763  0.000000      4.000000
 -0.077328 -0.014882  0.000000      4.000000
 -0.051552  0.000000  0.000000      4.000000
 -0.025776  0.014882  0.000000      2.000000
  0.051552  0.089290  0.000000      2.000000
  0.077328  0.104172  0.000000      4.000000
  0.103104  0.119054  0.000000      4.000000
  0.128880  0.133936  0.000000      4.000000
 -0.128880 -0.014882  0.000000      4.000000
 -0.103104  0.000000  0.000000      4.000000
 -0.077328  0.014882  0.000000      4.000000
 -0.051552  0.029763  0.000000      2.000000
  0.077328  0.133936  0.000000      2.000000
  0.103104  0.148817  0.000000      4.000000
  0.128880  0.163699  0.000000      4.000000
 -0.128880  0.014882  0.000000      4.000000
 -0.103104  0.029763  0.000000      4.000000
 -0.077328  0.044645  0.000000      2.000000
  0.103104  0.178581  0.000000      2.000000
  0.128880  0.193463  0.000000      4.000000
 -0.128880  0.044645  0.000000      4.000000
 -0.103104  0.059527  0.000000      2.000000
  0.128880  0.223226  0.000000      2.000000
 -0.128880  0.074409  0.000000      2.000000

 I would recommend the setting:
   dimension x,y,z NGX =    23 NGY =   23 NGZ =   97
 SYSTEM =  CoCl2 vaccu=15A
 POSCAR =  CoCl2_mp-696114_conventional_standard\(0

 Startparameter for this run:
   NWRITE =      2    write-flag & timer
   PREC   = high      normal or accurate (medium, high low for compatibility)
   ISTART =      0    job   : 0-new  1-cont  2-samecut
   ICHARG =      2    charge: 1-file 2-atom 10-const
   ISPIN  =      1    spin polarized calculation?
   LNONCOLLINEAR =      F non collinear calculations
   LSORBIT =      F    spin-orbit coupling
   INIWAV =      1    electr: 0-lowe 1-rand  2-diag
   LASPH  =      F    aspherical Exc in radial PAW
   METAGGA=      F    non-selfconsistent MetaGGA calc.

 Electronic Relaxation 1
   ENCUT  =  410.0 eV  30.13 Ry    5.49 a.u.   5.82  5.82 24.17*2*pi/ulx,y,z
   ENINI  =  410.0     initial cutoff
   ENAUG  =  477.8 eV  augmentation charge cutoff
   NELM   =    200;   NELMIN=  2; NELMDL= -5     # of ELM steps
   EDIFF  = 0.1E-04   stopping-criterion for ELM
   LREAL  =      F    real-space projection
   NLSPLINE    = F    spline interpolate recip. space projectors
   LCOMPAT=      F    compatible to vasp.4.4
   GGA_COMPAT  = T    GGA compatible to vasp.4.4-vasp.4.6
   LMAXPAW     = -100 max onsite density
   LMAXMIX     =    2 max onsite mixed and CHGCAR
   VOSKOWN=      0    Vosko Wilk Nusair interpolation
   ROPT   =    0.00000   0.00000
 Ionic relaxation
   EDIFFG = -.1E-01   stopping-criterion for IOM
   NSW    =    200    number of steps for IOM
   NBLOCK =      1;   KBLOCK =    200    inner block; outer block
   IBRION =      1    ionic relax: 0-MD 1-quasi-New 2-CG
   NFREE  =      0    steps in history (QN), initial steepest desc. (CG)
   ISIF   =      4    stress and relaxation
   IWAVPR =     11    prediction:  0-non 1-charg 2-wave 3-comb
   ISYM   =      2    0-nonsym 1-usesym 2-fastsym
   LCORR  =      T    Harris-Foulkes like correction to forces

   POTIM  = 0.5000    time-step for ionic-motion
   TEIN   =    0.0    initial temperature
   TEBEG  =    0.0;   TEEND  =   0.0 temperature during run
   SMASS  =  -3.00    Nose mass-parameter (am)
   estimated Nose-frequenzy (Omega)   =  0.10E-29 period in steps =****** mass=  -0.284E-27a.u.
   SCALEE = 1.0000    scale energy and forces
   NPACO  =    256;   APACO  = 16.0  distance and # of slots for P.C.
   PSTRESS=    0.0 pullay stress

  Mass of Ions in am
   POMASS =  35.45 58.93
  Ionic Valenz
   ZVAL   =   7.00  9.00
  Atomic Wigner-Seitz radii
  virtual crystal weights
   VCA    =   1.00  1.00
   NELECT =      23.0000    total number of electrons
   NUPDOWN=      -1.0000    fix difference up-down

 DOS related values:
   EMIN   =  10.00;   EMAX   =-10.00  energy-range for DOS
   EFERMI =   0.00
   ISMEAR =     0;   SIGMA  =   0.01  broadening in eV -4-tet -1-fermi 0-gaus

 Electronic relaxation 2 (details)
   IALGO  =     38    algorithm
   LDIAG  =      T    sub-space diagonalisation (order eigenvalues)
   LSUBROT=      F    optimize rotation matrix (better conditioning)
   TURBO    =      0    0=normal 1=particle mesh
   IRESTART =      0    0=no restart 2=restart with 2 vectors
   NREBOOT  =      0    no. of reboots
   NMIN     =      0    reboot dimension
   EREF     =   0.00    reference energy to select bands
   IMIX   =      4    mixing-type and parameters
     AMIX     =   0.40;   BMIX     =  1.00
     AMIX_MAG =   1.60;   BMIX_MAG =  1.00
     AMIN     =   0.10
     WC   =   100.;   INIMIX=   1;  MIXPRE=   1;  MAXMIX= -45

 Intra band minimization:
   WEIMIN = 0.0010     energy-eigenvalue tresh-hold
   EBREAK =  0.16E-06  absolut break condition
   DEPER  =   0.30     relativ break condition

   TIME   =   0.40     timestep for ELM

  volume/ion in A,a.u.               =      52.57       354.78
  Fermi-wavevector in a.u.,A,eV,Ry     =   0.861700  1.628376 10.102682  0.742526
  Thomas-Fermi vector in A             =   1.979392

 Write flags
   LWAVE  =      T    write WAVECAR
   LCHARG =      T    write CHGCAR
   LVTOT  =      F    write LOCPOT, total local potential
   LVHAR  =      F    write LOCPOT, Hartree potential only
   LELF   =      F    write electronic localiz. function (ELF)
   LORBIT =      0    0 simple, 1 ext, 2 COOP (PROOUT)

 Dipole corrections
   LMONO  =      F    monopole corrections only (constant potential shift)
   LDIPOL =      F    correct potential (dipole corrections)
   IDIPOL =      0    1-x, 2-y, 3-z, 4-all directions
   EPSILON=  1.0000000 bulk dielectric constant

 Exchange correlation treatment:
   GGA     =    --    GGA type
   VOSKOWN=      0    Vosko Wilk Nusair interpolation
   LHFCALC =     F    Hartree Fock is set to
[...]
  -0.36363636  0.27272727  0.00000000       0.033
  -0.27272727  0.27272727  0.00000000       0.017
   0.36363636  0.36363636  0.00000000       0.017
   0.45454545  0.36363636  0.00000000       0.033
  -0.45454545  0.36363636  0.00000000       0.033
  -0.36363636  0.36363636  0.00000000       0.017
   0.45454545  0.45454545  0.00000000       0.017
  -0.45454545  0.45454545  0.00000000       0.017

 position of ions in fractional coordinates (direct lattice)
   0.66667003  0.33332999  0.00000000
   0.33332999  0.66666998  0.18038000
   0.00000000  0.00000000  0.09019000

 position of ions in cartesian coordinates  (Angst):
   1.76346779  1.01811814  0.00000000
  -0.00001764  2.03626680  2.64092541
   0.00000000  0.00000000  1.32046271

 k-point  1 :   0.0000 0.0000 0.0000  plane waves:    2971
 k-point  2 :   0.0909 0.0000 0.0000  plane waves:    2950
 k-point  3 :   0.1818 0.0000 0.0000  plane waves:    2950
 k-point  4 :   0.2727 0.0000 0.0000  plane waves:    2966
 k-point  5 :   0.3636 0.0000 0.0000  plane waves:    2986
 k-point  6 :   0.4545 0.0000 0.0000  plane waves:    2998
 k-point  7 :   0.0909 0.0909 0.0000  plane waves:    2954
 k-point  8 :   0.1818 0.0909 0.0000  plane waves:    2958
 k-point  9 :   0.2727 0.0909 0.0000  plane waves:    2983
 k-point 10 :   0.3636 0.0909 0.0000  plane waves:    2977
 k-point 11 :   0.4545 0.0909 0.0000  plane waves:    2984
 k-point 12 :  -0.4545 0.0909 0.0000  plane waves:    2977
 k-point 13 :  -0.3636 0.0909 0.0000  plane waves:    2983
 k-point 14 :  -0.2727 0.0909 0.0000  plane waves:    2958
 k-point 15 :  -0.1818 0.0909 0.0000  plane waves:    2954
 k-point 16 :  -0.0909 0.0909 0.0000  plane waves:    2950
 k-point 17 :   0.1818 0.1818 0.0000  plane waves:    2978
 k-point 18 :   0.2727 0.1818 0.0000  plane waves:    2983
 k-point 19 :   0.3636 0.1818 0.0000  plane waves:    2970
 k-point 20 :   0.4545 0.1818 0.0000  plane waves:    2970
 k-point 21 :  -0.4545 0.1818 0.0000  plane waves:    2983
 k-point 22 :  -0.3636 0.1818 0.0000  plane waves:    2978
 k-point 23 :  -0.2727 0.1818 0.0000  plane waves:    2958
 k-point 24 :  -0.1818 0.1818 0.0000  plane waves:    2950
 k-point 25 :   0.2727 0.2727 0.0000  plane waves:    2976
 k-point 26 :   0.3636 0.2727 0.0000  plane waves:    2966
 k-point 27 :   0.4545 0.2727 0.0000  plane waves:    2976
 k-point 28 :  -0.4545 0.2727 0.0000  plane waves:    2983
 k-point 29 :  -0.3636 0.2727 0.0000  plane waves:    2983
 k-point 30 :  -0.2727 0.2727 0.0000  plane waves:    2966
 k-point 31 :   0.3636 0.3636 0.0000  plane waves:    2966
 k-point 32 :   0.4545 0.3636 0.0000  plane waves:    2970
 k-point 33 :  -0.4545 0.3636 0.0000  plane waves:    2977
 k-point 34 :  -0.3636 0.3636 0.0000  plane waves:    2986
 k-point 35 :   0.4545 0.4545 0.0000  plane waves:    2984
 k-point 36 :  -0.4545 0.4545 0.0000  plane waves:    2998

 maximum and minimum number of plane-waves per node :      2998     2950

 maximum number of plane-waves:      2998
 maximum index in each direction:
   IXMAX=    6   IYMAX=    5   IZMAX=   24
   IXMIN=   -6   IYMIN=   -6   IZMIN=  -24

 WARNING: aliasing errors must be expected set NGX to  26 to avoid them
 NGY is ok and might be reduce to  24
 NGZ is ok and might be reduce to  98
 aliasing errors are usually negligible using standard VASP settings
 and one can safely disregard these warnings

 serial   3D FFT for wavefunctions
 parallel 3D FFT for charge:
    minimum data exchange during FFTs selected (reduces bandwidth)

 Broyden mixing: mesh for mixing (old mesh)
   NGX = 11   NGY = 11   NGZ = 49
  (NGX  = 36   NGY  = 36   NGZ  =140)
  gives a total of   5929 points

 initial charge density was supplied:
 charge density of overlapping atoms calculated
 number of electron      23.0000000 magnetization
 keeping initial charge density in first step

 Maximum index for augmentation-charges         1344 (set IRDMAX)

 First call to EWALD:  gamma=   0.328
 Maximum number of real-space cells 4x 4x 1
 Maximum number of reciprocal cells 2x 2x 7

 FEWALD executed in parallel

----------------------------------------- Iteration    1(   1)  ---------------------------------------

 eigenvalue-minimisations  :  1152
 total energy-change (2. order) : 0.1629782E+03  (-0.7862508E+03)
 number of electron      23.0000000 magnetization
 augmentation part       23.0000000 magnetization

 Free energy of the ion-electron system (eV)
  alpha Z        PSCENC =        15.66301550
  Ewald energy   TEWEN  =      1626.54250004
  -Hartree energ DENC   =     -3132.21272604
  -exchange      EXHF   =         0.00000000
  -V(xc)+E(xc)   XCENC  =        56.12081122
  PAW double counting   =      1371.56239426    -1424.81982115
  entropy T*S    EENTRO =        -0.00017728
  eigenvalues    EBANDS =        17.32768754
  atomic energy  EATOM  =      1632.79452054
  Solvation  Ediel_sol  =         0.00000000
  free energy    TOTEN  =       162.97820463 eV

  energy without entropy =      162.97838191  energy(sigma->0) =      162.97829327

[...]

 eigenvalue-minimisations  :  1432
 total energy-change (2. order) :-0.1530129E+03  (-0.1480359E+03)
 number of electron      23.0000000 magnetization
 augmentation part       23.0000000 magnetization

[...]

 Broyden mixing:
  rms(total) = 0.10195E+01    rms(broyden)= 0.10181E+01
  rms(prec ) = 0.11213E+01
  weight for this iteration     100.00

[...]

 eigenvalues of (default mixing * dielectric matrix)
  average eigenvalue GAMMA=   0.3800
  0.3800

[...]

 average (electrostatic) potential at core
  the test charge radii are     0.9406  1.0452
  (the norm of the test charge is              1.0000)
       1 -98.3159       2 -98.3159       3 -90.1666

 E-fermi :  -1.7694     XC(G=0):  -4.2437     alpha+bet : -3.6065

 k-point     1 :       0.0000    0.0000    0.0000
  band No.  band energies     occupation
      1     -18.4565      2.00000
      2     -17.6432      2.00000
      3      -7.5322      2.00000
      4      -6.0567      2.00000
      5      -6.0562      2.00000
      6      -4.9682      2.00000
      7      -4.5713      2.00000
      8      -4.5712      2.00000
      9      -2.9248      2.00000
     10      -2.9238      2.00000
     11      -2.5647      2.00000
     12      -1.4845      0.00000
     13      -1.4833      0.00000
     14       1.9953      0.00000
     15       3.1434      0.00000
     16       3.5183      0.00000

[...]

 soft charge-density along one line, spin component           1
         0         1         2         3         4         5         6         7         8         9
 total charge-density along one line

------------------------ aborting loop because EDIFF is reached ----------------------------------------

  FORCE on cell =-STRESS in cart. coord.  units (eV):
  Direction    XX          YY          ZZ          XY          YZ          ZX
  Alpha Z    15.66302    15.66302    15.66302
  Ewald    2561.16629  2561.16065 -3495.78476    -0.00491    -0.00228     0.00398
  Hartree  2925.90430  2925.87060 -2725.69927    -0.02919    -0.02363     0.04093
  E(xc)     -97.13112   -97.12904   -97.40240     0.00180     0.00176    -0.00305
  Local   -5983.30030 -5983.18865  5720.76376     0.09671     0.08680    -0.15036
  n-local   152.17501   152.39189   152.50605    -0.07220     0.39206     0.23530
  augment   118.47837   118.44613   118.28770    -0.02792    -0.02808     0.04865
  Kinetic   302.80836   305.66081   309.45259    -0.86246     1.64328     1.01018
  Fock        0.00000     0.00000     0.00000     0.00000     0.00000     0.00000
  Total      -2.68172    -2.67894    -2.21331     0.00241     0.00231    -0.00400
  in kB     -27.24203   -27.21374   -22.48375     0.02450     0.02346    -0.04063

 VOLUME and BASIS-vectors are now :
  energy-cutoff  :      410.00
  volume of cell :      157.72
      direct lattice vectors                 reciprocal lattice vectors
     3.526900053  0.000000000  0.000000000     0.283535112  0.163699073  0.000000000
    -1.763450026  3.054385042  0.000000000     0.000000000  0.327398146  0.000000000
     0.000000000  0.000000000 14.640899658     0.000000000  0.000000000  0.068301814

[...]

 FORCES acting on ions
    electron-ion (+dipol)            ewald-force                    non-local-force                 convergence-correction
   0.154E-01 -.893E-02 0.603E+03   -.151E-02 0.868E-03 -.607E+03   -.110E-01 0.634E-02 0.449E+01   -.695E-02 0.401E-02 0.395E-03
   -.155E-01 0.902E-02 -.603E+03   0.150E-02 -.860E-03 0.607E+03   0.110E-01 -.634E-02 -.449E+01   0.695E-02 -.401E-02 -.395E-03
   0.919E-06 -.179E-05 -.747E-03   0.894E-05 -.729E-05 0.113E-05   0.000E+00 0.000E+00 0.000E+00   -.208E-07 0.122E-07 0.638E-06
   -.109E-03 0.885E-04 -.766E-03   -.469E-14 0.251E-15 0.000E+00   0.000E+00 0.000E+00 0.000E+00   -.428E-07 0.242E-07 0.157E-05

 POSITION                                       TOTAL-FORCE (eV/Angst)
      1.76347      1.01812      0.00000        -0.003958      0.002285      0.813576
     -0.00002      2.03627      2.64093         0.003958     -0.002285     -0.813576
      0.00000      0.00000      1.32046         0.000000     -0.000000     -0.000000
    total drift:                               -0.000109      0.000089     -0.000765

  FREE ENERGIE OF THE ION-ELECTRON SYSTEM (eV)
  free  energy   TOTEN  =       -11.60694112 eV

  energy  without entropy=      -11.60589175  energy(sigma->0) =      -11.60641643

 Quasi-Newton relaxation of ions (Broydens 2nd method)
  g(Force)  = 0.639E-01   g(Stress)= 0.234E-02

 Reset! Starting new Quasi-Newton update for ions

[...]

 d Force = 0.5497242E-01[ 0.458E-01, 0.642E-01]  d Energy = 0.5804951E-01-0.308E-02
 d Force =-0.4808554E+02[-0.483E+02,-0.479E+02]  d Ewald  =-0.7871549E+02 0.306E+02

[...]

 retain information from N=  1 steps
 eigenvalues of (default step * inverse Hessian matrix)
  average eigenvalue of G=   1.6129
 eigenvalue spectrum of G is  1.6129

[...]

 d Force =-0.3866128E-01[-0.432E-01,-0.341E-01]  d Energy =-0.4503028E-01 0.637E-02
 d Force = 0.3575288E+02[ 0.355E+02, 0.360E+02]  d Ewald  = 0.8851823E+02-0.528E+02

[...]

 d Force =-0.3924017E-01[-0.410E-01,-0.374E-01]  d Energy =-0.5542450E-01 0.162E-01
 d Force = 0.3031487E+02[ 0.298E+02, 0.308E+02]  d Ewald  = 0.1457671E+03-0.115E+03

[...]

 Broyden mixing:
  rms(total) = 0.50248E-03    rms(broyden)= 0.43197E-03
  rms(prec ) = 0.47807E-03
  weight for this iteration     100.00
  WARNING: grid for Broyden might be to small

[...]

 d Force = 0.1225915E-01[ 0.180E-02, 0.227E-01]  d Energy = 0.1449527E-01-0.224E-02
 d Force =-0.5629736E+02[-0.571E+02,-0.555E+02]  d Ewald  =-0.2003303E+03 0.144E+03

[...]

 d Force =-0.6523869E-04[-0.489E-03, 0.359E-03]  d Energy =-0.5689575E-05-0.595E-04
 d Force =-0.1137340E+02[-0.114E+02,-0.113E+02]  d Ewald  =-0.4858164E+02 0.372E+02

[...]

 FEWALD executed in parallel

[...]

 eigenvalue-minimisations  :  1440
 total energy-change (2. order) :-0.1093004E-04  (-0.1025190E-04)
 number of electron      22.9999932 magnetization
 augmentation part        3.3484398 magnetization

 Broyden mixing:
  rms(total) = 0.34671E-02    rms(broyden)= 0.34580E-02
  rms(prec ) = 0.36069E-02
  weight for this iteration     100.00

 eigenvalues of (default mixing * dielectric matrix)
  average eigenvalue GAMMA=   0.9707
  1.7979  1.2795  0.4403  0.3649

[...]

----------------------------------------- Iteration    8(   6)  ---------------------------------------

 eigenvalue-minimisations  :  1328
 total energy-change (2. order) : 0.4460781E-05  (-0.5638600E-05)
 number of electron      22.9999932 magnetization
 augmentation part        3.3484398 magnetization

 Free energy of the ion-electron system (eV)
  alpha Z        PSCENC =        15.66301550
  Ewald energy   TEWEN  =      2349.89300132
  -Hartree energ DENC   =     -3846.84926020
  -exchange      EXHF   =         0.00000000
  -V(xc)+E(xc)   XCENC  =        56.77229737
  PAW double counting   =      1904.24100824    -1957.79072371
  entropy T*S    EENTRO =        -0.00078736
  eigenvalues    EBANDS =      -166.48781575
  atomic energy  EATOM  =      1632.79452054
  Solvation  Ediel_sol  =         0.00000000
  free energy    TOTEN  =       -11.76474405 eV

  energy without entropy =      -11.76395669  energy(sigma->0) =      -11.76435037

 average (electrostatic) potential at core
  the test charge radii are     0.9406  1.0452
  (the norm of the test charge is              1.0000)
       1 -98.4052       2 -98.4053       3 -90.0172

 E-fermi :  -1.4078     XC(G=0):  -4.1161     alpha+bet : -3.6065

[...]

 k-point    36 :      -0.4545    0.4545    0.0000
  band No.  band energies     occupation
      1     -17.8867      2.00000
      2     -17.6604      2.00000
      3      -8.6224      2.00000
      4      -7.7315      2.00000
      5      -6.1897      2.00000
      6      -6.1145      2.00000
      7      -5.8214      2.00000
      8      -5.6505      2.00000
      9      -2.9640      2.00000
     10      -2.4553      2.00000
     11      -2.3324      2.00000
     12      -1.1127      0.00000
     13      -1.0975      0.00000
     14       3.4015      0.00000
     15       4.4225      0.00000
     16       5.8552      0.00000

 soft charge-density along one line, spin component           1
         0         1         2         3         4         5         6         7         8         9
 total charge-density along one line

------------------------ aborting loop because EDIFF is reached ----------------------------------------

  FORCE on cell =-STRESS in cart. coord.  units (eV):
  Direction    XX          YY          ZZ          XY          YZ          ZX
  Alpha Z    15.66302    15.66302    15.66302
  Ewald    3323.54909  3323.90605 -4297.56221     0.30911   -10.30295    17.84527
  Hartree  3663.11086  3663.25873 -3479.43527     0.12807    -9.79206    16.96033
  E(xc)     -97.80490   -97.80334   -98.12714     0.00136     0.00096    -0.00166
  Local   -7483.85235 -7484.29571  7274.30415    -0.38394    20.14437   -34.89109
  n-local   154.36072   154.29464   154.27484     0.02691     0.44185     0.23905
  augment   117.96118   117.93243   117.86681    -0.02490    -0.02494     0.04325
  Kinetic   305.39834   308.55618   312.94907    -0.95232     1.93912     1.18140
  Fock        0.00000     0.00000     0.00000     0.00000     0.00000     0.00000
  Total      -0.05501    -0.04705    -0.06674     0.00689     0.00320    -0.00555
  in kB      -0.55877    -0.47794    -0.67797     0.06999     0.03255    -0.05638

 VOLUME and BASIS-vectors are now :
  energy-cutoff  :      410.00
  volume of cell :      157.72
      direct lattice vectors                 reciprocal lattice vectors
     3.396137740 -0.001084394  0.008127520     0.294507430  0.170158235 -0.000403268
    -1.699007983  2.940599360 -0.008127520     0.000107639  0.340130033  0.000403268
     0.032455948 -0.018738450 15.795978059    -0.000151478  0.000087456  0.063307669

  length of vectors
     3.396147638  3.396147638 15.796022517     0.340130289  0.340130289  0.063307911

 FORCES acting on ions
    electron-ion (+dipol)            ewald-force                    non-local-force                 convergence-correction
   -.176E+01 0.102E+01 0.679E+03   0.179E+01 -.103E+01 -.683E+03   -.217E-01 0.125E-01 0.399E+01   -.390E-02 0.225E-02 -.163E-01
   0.176E+01 -.102E+01 -.679E+03   -.179E+01 0.103E+01 0.683E+03   0.217E-01 -.125E-01 -.399E+01   0.390E-02 -.225E-02 0.163E-01
   0.143E-04 -.864E-05 -.329E-03   0.983E-05 -.802E-05 0.155E-05   -.148E-19 -.106E-20 -.217E-18   0.384E-07 -.231E-07 0.513E-05
   -.862E-04 0.740E-04 -.602E-03   0.137E-14 0.609E-14 -.114E-12   -.148E-19 0.173E-17 -.444E-15   0.234E-07 -.145E-07 0.149E-04

 POSITION                                       TOTAL-FORCE (eV/Angst)
      1.70311      0.97639      0.16869        -0.001323      0.000764     -0.003707
     -0.00012      1.95975      2.68059         0.001323     -0.000764      0.003707
      0.00293     -0.00169      1.42464        -0.000000      0.000000      0.000000
    total drift:                               -0.000086      0.000074     -0.000587

  FREE ENERGIE OF THE ION-ELECTRON SYSTEM (eV)
  free  energy   TOTEN  =       -11.76474405 eV

  energy  without entropy=      -11.76395669  energy(sigma->0) =      -11.76435037

 d Force = 0.1124921E-03[ 0.259E-04, 0.199E-03]  d Energy = 0.1513231E-03-0.388E-04
 d Force = 0.4643839E+01[ 0.464E+01, 0.465E+01]  d Ewald  = 0.1389959E+02-0.926E+01

 Quasi-Newton relaxation of ions (Broydens 2nd method)
  g(Force)  = 0.155E-05   g(Stress)= 0.600E-05

 retain information from N=  1 steps
 eigenvalues of (default step * inverse Hessian matrix)
  average eigenvalue of G=   1.9903
 eigenvalue spectrum of G is  1.9903

 reached required accuracy - stopping structural energy minimisation
 writing wavefunctions